interface ihello
{
  in bool hello ();
  behavior
  {
    on hello: return true;
  }
}

component action_discard_value
{
  provides ihello p;
  requires ihello r;
  behavior
  {
    on p.hello (): r.hello ();
  }
}
